(set-logic QF_BV)
(declare-fun _substvar_1741_ () (_ BitVec 4))
(declare-fun _substvar_1747_ () (_ BitVec 4))
(declare-fun _substvar_2388_ () Bool)
(declare-fun _substvar_1752_ () (_ BitVec 4))
(declare-fun _substvar_1634_ () (_ BitVec 4))
(declare-fun _substvar_1749_ () (_ BitVec 4))
(declare-fun _substvar_1733_ () (_ BitVec 1))
(declare-fun _substvar_1666_ () (_ BitVec 4))
(declare-fun _substvar_1737_ () (_ BitVec 4))
(declare-fun _substvar_1735_ () (_ BitVec 4))
(declare-fun _substvar_1709_ () (_ BitVec 4))
(declare-fun _substvar_1713_ () (_ BitVec 4))
(declare-fun _substvar_1695_ () (_ BitVec 4))
(declare-fun _substvar_1693_ () (_ BitVec 4))
(declare-fun _substvar_1259_ () Bool)
(declare-fun _substvar_1659_ () (_ BitVec 4))
(declare-fun _substvar_1726_ () (_ BitVec 17))
(declare-fun _substvar_1658_ () (_ BitVec 4))
(declare-fun _substvar_2379_ () Bool)
(declare-fun _substvar_1705_ () (_ BitVec 17))
(declare-fun _substvar_1681_ () (_ BitVec 4))
(declare-fun _substvar_1252_ () Bool)
(declare-fun _substvar_1694_ () (_ BitVec 4))
(declare-fun _substvar_1692_ () (_ BitVec 4))
(declare-fun _substvar_1722_ () (_ BitVec 4))
(declare-fun _substvar_2394_ () Bool)
(assert (let ( (?v_28 (= _substvar_1681_ _substvar_1695_)) (?v_20 (= _substvar_1747_ _substvar_1694_)) (?v_21 (= _substvar_1709_ _substvar_1693_)) (?v_22 (= _substvar_1735_ _substvar_1692_)) (?v_34 ((_ extract 11 8) _substvar_1705_)) (?v_35 ((_ extract 7 4) _substvar_1705_)) (?v_36 ((_ extract 3 0) _substvar_1705_)) (?v_37 (= _substvar_1749_ _substvar_1694_)) (?v_38 (= _substvar_1658_ _substvar_1693_)) (?v_39 (= _substvar_1659_ _substvar_1692_)) (?v_49 ((_ extract 16 13) _substvar_1726_)) (?v_50 ((_ extract 12 9) _substvar_1726_)) (?v_52 ((_ extract 7 4) _substvar_1726_))) (and true true true true true true true ?v_28 (and true ?v_20 ?v_21 ?v_22) ?v_28 true (= _substvar_1705_ (concat (concat (concat (_ bv0 5) _substvar_1747_) _substvar_1709_) _substvar_1735_)) (and _substvar_2394_ true (= _substvar_1666_ ?v_34) (= _substvar_1713_ ?v_35) (= _substvar_1737_ ?v_36)) (= _substvar_1634_ (bvadd (bvadd (bvadd (_ bv0 4) _substvar_1666_) _substvar_1713_) _substvar_1737_)) _substvar_2388_ true _substvar_2388_ (and true ?v_37 ?v_38 ?v_39) (= _substvar_1726_ (concat (concat (concat (concat _substvar_1659_ _substvar_1658_) _substvar_1733_) _substvar_1749_) (_ bv0 4))) (ite false false (and (= _substvar_1741_ ?v_49) (= _substvar_1722_ ?v_50) _substvar_1259_ (= _substvar_1752_ ?v_52) _substvar_2379_)) (= (_ bv0 4) (bvadd (bvadd (bvadd (_ bv0 4) _substvar_1752_) _substvar_1722_) _substvar_1741_)) (or false false (and _substvar_1252_ (not (= _substvar_1634_ (_ bv0 4))))))))
(check-sat)
(exit)
